Generated by SeekPath
40
Line_mode
Reciprocal
-0.5 0.0 0.0 ! M'
0.0 0.0 0.0 ! \Gamma

0.0 0.0 0.0 ! \Gamma
0.5 0.0 0.0 ! M

0.5 0.0 0.0 ! M
0.33333333 0.33333333 0.0 ! K

0.33333333 0.33333333 0.0 ! K
0.0 0.0 0.0 ! \Gamma

0.0 0.0 0.0 ! \Gamma
-0.33333333 -0.33333333 0.0 ! K'
